====================================================================================================================
File name: 200_20_145_15.def
Creation date: Mon Nov 24 20:40:30 CET 2014
Website: http://imopse.ii.pwr.edu.pl/
Reference:
Myszkowski P. B., Skowronski M. E., Olech L., Oslizlo K.,
Hybrid Ant Colony Optimization in solving Multi-Skill Resource-Constrained Project Scheduling Problem,
Soft Computing, DOI: DOI 10.1007/s00500-014-1455-x
====================================================================================================================
General characteristics:
Tasks: 200
Resources: 20
Precedence relations: 145
Number of skill types: 15
====================================================================================================================
ResourceID 	 Salary 	 Skills
1	 	 	20.1	 	 Q4: 2 	  Q8: 1 	  Q7: 0 	  Q2: 1 	  Q6: 2 	  Q13: 1
2	 	 	64.4	 	 Q5: 0 	  Q1: 1 	  Q11: 0 	  Q7: 0 	  Q6: 1 	  Q0: 0
3	 	 	46.2	 	 Q10: 2 	  Q12: 1 	  Q5: 0 	  Q4: 2 	  Q7: 1 	  Q6: 0
4	 	 	42.8	 	 Q3: 0 	  Q14: 1 	  Q12: 2 	  Q10: 2 	  Q4: 0 	  Q5: 2
5	 	 	73.3	 	 Q12: 0 	  Q5: 1 	  Q14: 0 	  Q13: 0 	  Q2: 0 	  Q11: 1
6	 	 	91.7	 	 Q5: 1 	  Q14: 1 	  Q2: 2 	  Q3: 1 	  Q4: 1 	  Q7: 1
7	 	 	79.7	 	 Q1: 0 	  Q9: 1 	  Q6: 1 	  Q12: 0 	  Q13: 2 	  Q4: 1
8	 	 	67.0	 	 Q5: 1 	  Q1: 1 	  Q10: 2 	  Q4: 2 	  Q12: 1 	  Q7: 1
9	 	 	61.4	 	 Q14: 1 	  Q8: 2 	  Q0: 2 	  Q5: 1 	  Q11: 2 	  Q13: 0
10	 	 	98.2	 	 Q5: 0 	  Q8: 1 	  Q1: 2 	  Q13: 0 	  Q7: 1 	  Q12: 2
11	 	 	73.0	 	 Q3: 2 	  Q13: 0 	  Q9: 1 	  Q10: 2 	  Q11: 1 	  Q14: 0
12	 	 	38.0	 	 Q3: 2 	  Q2: 1 	  Q14: 0 	  Q11: 2 	  Q6: 2 	  Q13: 2
13	 	 	61.0	 	 Q9: 0 	  Q0: 1 	  Q7: 1 	  Q1: 1 	  Q11: 2 	  Q14: 0
14	 	 	17.4	 	 Q0: 0 	  Q1: 0 	  Q4: 0 	  Q8: 1 	  Q7: 2 	  Q2: 1
15	 	 	65.8	 	 Q14: 0 	  Q11: 0 	  Q3: 0 	  Q2: 1 	  Q10: 0 	  Q8: 1
16	 	 	20.2	 	 Q5: 1 	  Q6: 1 	  Q8: 0 	  Q1: 1 	  Q14: 1 	  Q2: 2
17	 	 	86.4	 	 Q2: 0 	  Q12: 1 	  Q4: 1 	  Q1: 2 	  Q9: 2 	  Q3: 1
18	 	 	77.0	 	 Q12: 0 	  Q4: 1 	  Q5: 0 	  Q9: 2 	  Q8: 1 	  Q14: 0
19	 	 	90.2	 	 Q2: 1 	  Q13: 0 	  Q9: 0 	  Q0: 2 	  Q14: 1 	  Q8: 0
20	 	 	39.0	 	 Q0: 1 	  Q6: 2 	  Q14: 1 	  Q4: 0 	  Q7: 1 	  Q9: 0
====================================================================================================================
TaskID 	 Duration 	 Skill 	 Predecessor IDs
1	 	 	24	 Q10: 0
2	 	 	12	 Q7: 0
3	 	 	30	 Q7: 2
4	 	 	14	 Q12: 0
5	 	 	33	 Q14: 1
6	 	 	27	 Q1: 2
7	 	 	9	 Q1: 1
8	 	 	21	 Q13: 0
9	 	 	33	 Q7: 1
10	 	 	10	 Q7: 2
11	 	 	33	 Q11: 0
12	 	 	11	 Q0: 0	 	1
13	 	 	32	 Q2: 1
14	 	 	15	 Q1: 0
15	 	 	27	 Q4: 2
16	 	 	22	 Q14: 0
17	 	 	26	 Q9: 0
18	 	 	39	 Q5: 1
19	 	 	40	 Q14: 0	 	14	6
20	 	 	19	 Q5: 0
21	 	 	14	 Q5: 0
22	 	 	10	 Q14: 1	 	17
23	 	 	33	 Q4: 0
24	 	 	17	 Q4: 2	 	7	15
25	 	 	27	 Q10: 0
26	 	 	29	 Q1: 0
27	 	 	9	 Q1: 1
28	 	 	13	 Q12: 0
29	 	 	25	 Q13: 2
30	 	 	31	 Q8: 1
31	 	 	35	 Q9: 1
32	 	 	30	 Q10: 0
33	 	 	32	 Q7: 2
34	 	 	20	 Q11: 1
35	 	 	36	 Q7: 2
36	 	 	36	 Q11: 0
37	 	 	18	 Q7: 0
38	 	 	25	 Q10: 0
39	 	 	12	 Q13: 2
40	 	 	15	 Q4: 2	 	22
41	 	 	34	 Q0: 2
42	 	 	26	 Q7: 1	 	15
43	 	 	32	 Q11: 2
44	 	 	31	 Q11: 2
45	 	 	16	 Q0: 0
46	 	 	21	 Q12: 0
47	 	 	35	 Q9: 2
48	 	 	17	 Q13: 2
49	 	 	22	 Q7: 0
50	 	 	25	 Q5: 1
51	 	 	13	 Q12: 2
52	 	 	25	 Q6: 2	 	21
53	 	 	27	 Q12: 1
54	 	 	13	 Q13: 0	 	53
55	 	 	10	 Q14: 0
56	 	 	37	 Q14: 0	 	52
57	 	 	40	 Q6: 2
58	 	 	23	 Q12: 2
59	 	 	35	 Q10: 0
60	 	 	27	 Q2: 0
61	 	 	19	 Q3: 0	 	59	13	39
62	 	 	9	 Q5: 2
63	 	 	9	 Q13: 1	 	32
64	 	 	37	 Q10: 0
65	 	 	26	 Q14: 0
66	 	 	12	 Q13: 1	 	1
67	 	 	11	 Q12: 2	 	2	19	11
68	 	 	21	 Q6: 2	 	24
69	 	 	32	 Q6: 1	 	27
70	 	 	38	 Q14: 0
71	 	 	25	 Q13: 0	 	11
72	 	 	33	 Q8: 2	 	22
73	 	 	33	 Q9: 1
74	 	 	13	 Q5: 1	 	22
75	 	 	25	 Q11: 2
76	 	 	11	 Q11: 2	 	54
77	 	 	18	 Q10: 0	 	51	4
78	 	 	25	 Q7: 1	 	5
79	 	 	31	 Q10: 2	 	32
80	 	 	29	 Q2: 1	 	53
81	 	 	36	 Q13: 0
82	 	 	37	 Q0: 1
83	 	 	13	 Q8: 0	 	36	62
84	 	 	13	 Q14: 0
85	 	 	39	 Q2: 1
86	 	 	28	 Q12: 0
87	 	 	24	 Q11: 0	 	7
88	 	 	40	 Q1: 0	 	12	52	19
89	 	 	22	 Q1: 0
90	 	 	12	 Q1: 0	 	9	80
91	 	 	17	 Q9: 0
92	 	 	35	 Q0: 0
93	 	 	16	 Q8: 0	 	16	30
94	 	 	22	 Q5: 1	 	5
95	 	 	26	 Q3: 1
96	 	 	29	 Q2: 0
97	 	 	24	 Q11: 0	 	44	13
98	 	 	9	 Q3: 0
99	 	 	19	 Q7: 0	 	95
100	 	 	25	 Q6: 0
101	 	 	27	 Q4: 1	 	11
102	 	 	14	 Q6: 2	 	28	49	10	65
103	 	 	28	 Q1: 0	 	84
104	 	 	36	 Q7: 0	 	7
105	 	 	19	 Q11: 0
106	 	 	24	 Q1: 1	 	32
107	 	 	21	 Q9: 1	 	30
108	 	 	21	 Q5: 1	 	44
109	 	 	17	 Q0: 2
110	 	 	27	 Q7: 2	 	4	56
111	 	 	18	 Q4: 1
112	 	 	17	 Q13: 1	 	10
113	 	 	17	 Q10: 0
114	 	 	26	 Q14: 1
115	 	 	32	 Q2: 2	 	76
116	 	 	24	 Q8: 2
117	 	 	14	 Q14: 0
118	 	 	26	 Q5: 2
119	 	 	38	 Q11: 2	 	116
120	 	 	20	 Q9: 2
121	 	 	34	 Q2: 0	 	79
122	 	 	13	 Q10: 0
123	 	 	19	 Q8: 1
124	 	 	16	 Q7: 2	 	15
125	 	 	11	 Q6: 1	 	120	87
126	 	 	30	 Q3: 2
127	 	 	14	 Q10: 2	 	97
128	 	 	40	 Q11: 1	 	41	54
129	 	 	10	 Q6: 1
130	 	 	10	 Q7: 1
131	 	 	24	 Q0: 2	 	89
132	 	 	30	 Q0: 0
133	 	 	25	 Q10: 2
134	 	 	14	 Q7: 2
135	 	 	9	 Q13: 0	 	104
136	 	 	17	 Q2: 1	 	82
137	 	 	8	 Q3: 0	 	61
138	 	 	19	 Q6: 1
139	 	 	20	 Q8: 2	 	67	48
140	 	 	10	 Q14: 0	 	72	68
141	 	 	26	 Q9: 1	 	81	78	22
142	 	 	18	 Q6: 2	 	126	48
143	 	 	33	 Q4: 1
144	 	 	25	 Q8: 1	 	73	140
145	 	 	34	 Q8: 2
146	 	 	39	 Q1: 0
147	 	 	9	 Q3: 0	 	38	100
148	 	 	25	 Q14: 1
149	 	 	22	 Q0: 0
150	 	 	15	 Q8: 2
151	 	 	12	 Q7: 1
152	 	 	21	 Q6: 1	 	69
153	 	 	9	 Q1: 2
154	 	 	11	 Q7: 1
155	 	 	13	 Q6: 1	 	86	140
156	 	 	12	 Q1: 2
157	 	 	19	 Q3: 1
158	 	 	33	 Q2: 0
159	 	 	17	 Q1: 0	 	13	122
160	 	 	10	 Q6: 1	 	89	19	147	148
161	 	 	34	 Q8: 1	 	94	18	136
162	 	 	15	 Q1: 0	 	60	72
163	 	 	35	 Q0: 2
164	 	 	25	 Q7: 1	 	53	30	3
165	 	 	18	 Q10: 2
166	 	 	37	 Q6: 0	 	7
167	 	 	32	 Q0: 1	 	18
168	 	 	21	 Q13: 2
169	 	 	12	 Q5: 0	 	153
170	 	 	26	 Q1: 2	 	114	139	132	125
171	 	 	31	 Q10: 2	 	79
172	 	 	34	 Q3: 1	 	23	59
173	 	 	24	 Q14: 1	 	45	26
174	 	 	24	 Q11: 0	 	60
175	 	 	18	 Q2: 0	 	109	137
176	 	 	23	 Q11: 0	 	25
177	 	 	30	 Q14: 1	 	116	79
178	 	 	36	 Q4: 0
179	 	 	24	 Q12: 1	 	113	157
180	 	 	17	 Q9: 0	 	32
181	 	 	27	 Q8: 1	 	46	101
182	 	 	35	 Q9: 0	 	100
183	 	 	18	 Q2: 1
184	 	 	25	 Q6: 1
185	 	 	18	 Q11: 0	 	38
186	 	 	38	 Q12: 0	 	136
187	 	 	10	 Q0: 2	 	107	176	102
188	 	 	25	 Q11: 1	 	114	99	184
189	 	 	19	 Q4: 1	 	133	134	48
190	 	 	13	 Q13: 1	 	136
191	 	 	18	 Q6: 2	 	110
192	 	 	29	 Q12: 0	 	11	1
193	 	 	24	 Q2: 1
194	 	 	22	 Q4: 2
195	 	 	9	 Q12: 0
196	 	 	33	 Q5: 2	 	114
197	 	 	39	 Q6: 0
198	 	 	34	 Q1: 2	 	194	114
199	 	 	19	 Q6: 2
200	 	 	18	 Q0: 1	 	74	65	106
====================================================================================================================
